solution status: optimal solution found
objective value:                                   18
x31                                                 1 	(obj:1)
x35                                                 1 	(obj:1)
x36                                                 1 	(obj:1)
x40                                                 1 	(obj:1)
x41                                                 1 	(obj:1)
x42                                                 1 	(obj:1)
x43                                                 1 	(obj:1)
x44                                                 1 	(obj:1)
x49                                                 1 	(obj:1)
x51                                                 1 	(obj:1)
x52                                                 1 	(obj:1)
x53                                                 1 	(obj:1)
x54                                                 1 	(obj:1)
x57                                                 1 	(obj:1)
x58                                                 1 	(obj:1)
x60                                                 1 	(obj:1)
x61                                                 1 	(obj:1)
x62                                                 1 	(obj:1)
one.thingy.devices[2].thingy.vs1_y                   11 	(obj:0)
one.thingy.devices[2].thingy.vs1_z                    8 	(obj:0)
one.ctrl_a[5].flush_y                               7 	(obj:0)
one.ctrl_a[5].flush_z                               3 	(obj:0)
one.thingy.devices[1].thingy.vs1_y                   10 	(obj:0)
one.thingy.devices[1].thingy.vs1_z                   11 	(obj:0)
one.thingy.devices[2].thingy.circulate2_y                   11 	(obj:0)
one.thingy.devices[2].thingy.circulate2_z                   10 	(obj:0)
one.ctrl_a[6].flush_y                               6 	(obj:0)
one.ctrl_a[6].flush_z                               4 	(obj:0)
one.ctrl_a[5].hole_y                                7 	(obj:0)
one.ctrl_a[5].hole_z                                7 	(obj:0)
one.thingy.devices[3].thingy.circulate2_y                   11 	(obj:0)
one.thingy.devices[3].thingy.circulate2_z                    7 	(obj:0)
one.thingy.devices[0].thingy.vs1_y                    9 	(obj:0)
one.thingy.devices[0].thingy.vs1_z                   10 	(obj:0)
one.thingy.devices[0].thingy.circulate2_y                   11 	(obj:0)
one.thingy.devices[0].thingy.circulate2_z                   11 	(obj:0)
one.thingy.devices[3].thingy.vs1_y                   10 	(obj:0)
one.thingy.devices[3].thingy.vs1_z                    8 	(obj:0)
one.ctrl_a[6].hole_y                                5 	(obj:0)
one.ctrl_a[6].hole_z                                6 	(obj:0)
one.thingy.devices[1].thingy.circulate2_y                   12 	(obj:0)
one.thingy.devices[1].thingy.circulate2_z                   10 	(obj:0)
